p cnf 60 732
-13 -14 0
-13 -15 0
-13 -16 0
-13 -17 0
-13 -18 0
-13 -19 0
-13 -20 0
-13 -21 0
-13 -22 0
-13 -23 0
-13 -24 0
-14 -15 0
-14 -16 0
-14 -17 0
-14 -18 0
-14 -19 0
-14 -20 0
-14 -21 0
-14 -22 0
-14 -23 0
-14 -24 0
-15 -16 0
-15 -17 0
-15 -18 0
-15 -19 0
-15 -20 0
-15 -21 0
-15 -22 0
-15 -23 0
-15 -24 0
-16 -17 0
-16 -18 0
-16 -19 0
-16 -20 0
-16 -21 0
-16 -22 0
-16 -23 0
-16 -24 0
-17 -18 0
-17 -19 0
-17 -20 0
-17 -21 0
-17 -22 0
-17 -23 0
-17 -24 0
-18 -19 0
-18 -20 0
-18 -21 0
-18 -22 0
-18 -23 0
-18 -24 0
-19 -20 0
-19 -21 0
-19 -22 0
-19 -23 0
-19 -24 0
-20 -21 0
-20 -22 0
-20 -23 0
-20 -24 0
-21 -22 0
-21 -23 0
-21 -24 0
-22 -23 0
-22 -24 0
-23 -24 0
-25 -26 0
-25 -27 0
-25 -28 0
-25 -29 0
-25 -30 0
-25 -31 0
-25 -32 0
-25 -33 0
-25 -34 0
-25 -35 0
-25 -36 0
-26 -27 0
-26 -28 0
-26 -29 0
-26 -30 0
-26 -31 0
-26 -32 0
-26 -33 0
-26 -34 0
-26 -35 0
-26 -36 0
-27 -28 0
-27 -29 0
-27 -30 0
-27 -31 0
-27 -32 0
-27 -33 0
-27 -34 0
-27 -35 0
-27 -36 0
-28 -29 0
-28 -30 0
-28 -31 0
-28 -32 0
-28 -33 0
-28 -34 0
-28 -35 0
-28 -36 0
-29 -30 0
-29 -31 0
-29 -32 0
-29 -33 0
-29 -34 0
-29 -35 0
-29 -36 0
-30 -31 0
-30 -32 0
-30 -33 0
-30 -34 0
-30 -35 0
-30 -36 0
-31 -32 0
-31 -33 0
-31 -34 0
-31 -35 0
-31 -36 0
-32 -33 0
-32 -34 0
-32 -35 0
-32 -36 0
-33 -34 0
-33 -35 0
-33 -36 0
-34 -35 0
-34 -36 0
-35 -36 0
-37 -38 0
-37 -39 0
-37 -40 0
-37 -41 0
-37 -42 0
-37 -43 0
-37 -44 0
-37 -45 0
-37 -46 0
-37 -47 0
-37 -48 0
-38 -39 0
-38 -40 0
-38 -41 0
-38 -42 0
-38 -43 0
-38 -44 0
-38 -45 0
-38 -46 0
-38 -47 0
-38 -48 0
-39 -40 0
-39 -41 0
-39 -42 0
-39 -43 0
-39 -44 0
-39 -45 0
-39 -46 0
-39 -47 0
-39 -48 0
-40 -41 0
-40 -42 0
-40 -43 0
-40 -44 0
-40 -45 0
-40 -46 0
-40 -47 0
-40 -48 0
-41 -42 0
-41 -43 0
-41 -44 0
-41 -45 0
-41 -46 0
-41 -47 0
-41 -48 0
-42 -43 0
-42 -44 0
-42 -45 0
-42 -46 0
-42 -47 0
-42 -48 0
-43 -44 0
-43 -45 0
-43 -46 0
-43 -47 0
-43 -48 0
-44 -45 0
-44 -46 0
-44 -47 0
-44 -48 0
-45 -46 0
-45 -47 0
-45 -48 0
-46 -47 0
-46 -48 0
-47 -48 0
-49 -50 0
-49 -51 0
-49 -52 0
-49 -53 0
-49 -54 0
-49 -55 0
-49 -56 0
-49 -57 0
-49 -58 0
-49 -59 0
-49 -60 0
-50 -51 0
-50 -52 0
-50 -53 0
-50 -54 0
-50 -55 0
-50 -56 0
-50 -57 0
-50 -58 0
-50 -59 0
-50 -60 0
-51 -52 0
-51 -53 0
-51 -54 0
-51 -55 0
-51 -56 0
-51 -57 0
-51 -58 0
-51 -59 0
-51 -60 0
-52 -53 0
-52 -54 0
-52 -55 0
-52 -56 0
-52 -57 0
-52 -58 0
-52 -59 0
-52 -60 0
-53 -54 0
-53 -55 0
-53 -56 0
-53 -57 0
-53 -58 0
-53 -59 0
-53 -60 0
-54 -55 0
-54 -56 0
-54 -57 0
-54 -58 0
-54 -59 0
-54 -60 0
-55 -56 0
-55 -57 0
-55 -58 0
-55 -59 0
-55 -60 0
-56 -57 0
-56 -58 0
-56 -59 0
-56 -60 0
-57 -58 0
-57 -59 0
-57 -60 0
-58 -59 0
-58 -60 0
-59 -60 0
-14 -25 0
-15 -25 0
-16 -25 0
-17 -25 0
-18 -25 0
-19 -25 0
-20 -25 0
-21 -25 0
-22 -25 0
-23 -25 0
-24 -25 0
-15 -26 0
-16 -26 0
-17 -26 0
-18 -26 0
-19 -26 0
-20 -26 0
-21 -26 0
-22 -26 0
-23 -26 0
-24 -26 0
-16 -27 0
-17 -27 0
-18 -27 0
-19 -27 0
-20 -27 0
-21 -27 0
-22 -27 0
-23 -27 0
-24 -27 0
-17 -28 0
-18 -28 0
-19 -28 0
-20 -28 0
-21 -28 0
-22 -28 0
-23 -28 0
-24 -28 0
-18 -29 0
-19 -29 0
-20 -29 0
-21 -29 0
-22 -29 0
-23 -29 0
-24 -29 0
-19 -30 0
-20 -30 0
-21 -30 0
-22 -30 0
-23 -30 0
-24 -30 0
-20 -31 0
-21 -31 0
-22 -31 0
-23 -31 0
-24 -31 0
-21 -32 0
-22 -32 0
-23 -32 0
-24 -32 0
-22 -33 0
-23 -33 0
-24 -33 0
-23 -34 0
-24 -34 0
-24 -35 0
-14 -37 0
-15 -37 0
-16 -37 0
-17 -37 0
-18 -37 0
-19 -37 0
-20 -37 0
-21 -37 0
-22 -37 0
-23 -37 0
-24 -37 0
-15 -38 0
-16 -38 0
-17 -38 0
-18 -38 0
-19 -38 0
-20 -38 0
-21 -38 0
-22 -38 0
-23 -38 0
-24 -38 0
-16 -39 0
-17 -39 0
-18 -39 0
-19 -39 0
-20 -39 0
-21 -39 0
-22 -39 0
-23 -39 0
-24 -39 0
-17 -40 0
-18 -40 0
-19 -40 0
-20 -40 0
-21 -40 0
-22 -40 0
-23 -40 0
-24 -40 0
-18 -41 0
-19 -41 0
-20 -41 0
-21 -41 0
-22 -41 0
-23 -41 0
-24 -41 0
-19 -42 0
-20 -42 0
-21 -42 0
-22 -42 0
-23 -42 0
-24 -42 0
-20 -43 0
-21 -43 0
-22 -43 0
-23 -43 0
-24 -43 0
-21 -44 0
-22 -44 0
-23 -44 0
-24 -44 0
-22 -45 0
-23 -45 0
-24 -45 0
-23 -46 0
-24 -46 0
-24 -47 0
-14 -49 0
-15 -49 0
-16 -49 0
-17 -49 0
-18 -49 0
-19 -49 0
-20 -49 0
-21 -49 0
-22 -49 0
-23 -49 0
-24 -49 0
-15 -50 0
-16 -50 0
-17 -50 0
-18 -50 0
-19 -50 0
-20 -50 0
-21 -50 0
-22 -50 0
-23 -50 0
-24 -50 0
-16 -51 0
-17 -51 0
-18 -51 0
-19 -51 0
-20 -51 0
-21 -51 0
-22 -51 0
-23 -51 0
-24 -51 0
-17 -52 0
-18 -52 0
-19 -52 0
-20 -52 0
-21 -52 0
-22 -52 0
-23 -52 0
-24 -52 0
-18 -53 0
-19 -53 0
-20 -53 0
-21 -53 0
-22 -53 0
-23 -53 0
-24 -53 0
-19 -54 0
-20 -54 0
-21 -54 0
-22 -54 0
-23 -54 0
-24 -54 0
-20 -55 0
-21 -55 0
-22 -55 0
-23 -55 0
-24 -55 0
-21 -56 0
-22 -56 0
-23 -56 0
-24 -56 0
-22 -57 0
-23 -57 0
-24 -57 0
-23 -58 0
-24 -58 0
-24 -59 0
-26 -37 0
-27 -37 0
-28 -37 0
-29 -37 0
-30 -37 0
-31 -37 0
-32 -37 0
-33 -37 0
-34 -37 0
-35 -37 0
-36 -37 0
-27 -38 0
-28 -38 0
-29 -38 0
-30 -38 0
-31 -38 0
-32 -38 0
-33 -38 0
-34 -38 0
-35 -38 0
-36 -38 0
-28 -39 0
-29 -39 0
-30 -39 0
-31 -39 0
-32 -39 0
-33 -39 0
-34 -39 0
-35 -39 0
-36 -39 0
-29 -40 0
-30 -40 0
-31 -40 0
-32 -40 0
-33 -40 0
-34 -40 0
-35 -40 0
-36 -40 0
-30 -41 0
-31 -41 0
-32 -41 0
-33 -41 0
-34 -41 0
-35 -41 0
-36 -41 0
-31 -42 0
-32 -42 0
-33 -42 0
-34 -42 0
-35 -42 0
-36 -42 0
-32 -43 0
-33 -43 0
-34 -43 0
-35 -43 0
-36 -43 0
-33 -44 0
-34 -44 0
-35 -44 0
-36 -44 0
-34 -45 0
-35 -45 0
-36 -45 0
-35 -46 0
-36 -46 0
-36 -47 0
-26 -49 0
-27 -49 0
-28 -49 0
-29 -49 0
-30 -49 0
-31 -49 0
-32 -49 0
-33 -49 0
-34 -49 0
-35 -49 0
-36 -49 0
-27 -50 0
-28 -50 0
-29 -50 0
-30 -50 0
-31 -50 0
-32 -50 0
-33 -50 0
-34 -50 0
-35 -50 0
-36 -50 0
-28 -51 0
-29 -51 0
-30 -51 0
-31 -51 0
-32 -51 0
-33 -51 0
-34 -51 0
-35 -51 0
-36 -51 0
-29 -52 0
-30 -52 0
-31 -52 0
-32 -52 0
-33 -52 0
-34 -52 0
-35 -52 0
-36 -52 0
-30 -53 0
-31 -53 0
-32 -53 0
-33 -53 0
-34 -53 0
-35 -53 0
-36 -53 0
-31 -54 0
-32 -54 0
-33 -54 0
-34 -54 0
-35 -54 0
-36 -54 0
-32 -55 0
-33 -55 0
-34 -55 0
-35 -55 0
-36 -55 0
-33 -56 0
-34 -56 0
-35 -56 0
-36 -56 0
-34 -57 0
-35 -57 0
-36 -57 0
-35 -58 0
-36 -58 0
-36 -59 0
-38 -49 0
-39 -49 0
-40 -49 0
-41 -49 0
-42 -49 0
-43 -49 0
-44 -49 0
-45 -49 0
-46 -49 0
-47 -49 0
-48 -49 0
-39 -50 0
-40 -50 0
-41 -50 0
-42 -50 0
-43 -50 0
-44 -50 0
-45 -50 0
-46 -50 0
-47 -50 0
-48 -50 0
-40 -51 0
-41 -51 0
-42 -51 0
-43 -51 0
-44 -51 0
-45 -51 0
-46 -51 0
-47 -51 0
-48 -51 0
-41 -52 0
-42 -52 0
-43 -52 0
-44 -52 0
-45 -52 0
-46 -52 0
-47 -52 0
-48 -52 0
-42 -53 0
-43 -53 0
-44 -53 0
-45 -53 0
-46 -53 0
-47 -53 0
-48 -53 0
-43 -54 0
-44 -54 0
-45 -54 0
-46 -54 0
-47 -54 0
-48 -54 0
-44 -55 0
-45 -55 0
-46 -55 0
-47 -55 0
-48 -55 0
-45 -56 0
-46 -56 0
-47 -56 0
-48 -56 0
-46 -57 0
-47 -57 0
-48 -57 0
-47 -58 0
-48 -58 0
-48 -59 0
-13 1 0
-14 2 0
-15 3 0
-16 4 0
-17 5 0
-18 6 0
-19 7 0
-20 8 0
-21 9 0
-22 10 0
-23 11 0
-24 12 0
-25 1 0
-26 2 0
-27 3 0
-28 4 0
-29 5 0
-30 6 0
-31 7 0
-32 8 0
-33 9 0
-34 10 0
-35 11 0
-36 12 0
-37 1 0
-38 2 0
-39 3 0
-40 4 0
-41 5 0
-42 6 0
-43 7 0
-44 8 0
-45 9 0
-46 10 0
-47 11 0
-48 12 0
-49 1 0
-50 2 0
-51 3 0
-52 4 0
-53 5 0
-54 6 0
-55 7 0
-56 8 0
-57 9 0
-58 10 0
-59 11 0
-60 12 0
-1 13 25 37 49 0
-2 14 26 38 50 0
-3 15 27 39 51 0
-4 16 28 40 52 0
-5 17 29 41 53 0
-6 18 30 42 54 0
-7 19 31 43 55 0
-8 20 32 44 56 0
-9 21 33 45 57 0
-10 22 34 46 58 0
-11 23 35 47 59 0
-12 24 36 48 60 0
1 3 5 11 0
1 3 12 0
1 6 0
1 6 8 11 12 0
1 8 0
2 4 0
2 4 10 0
3 11 12 0
4 5 10 0
5 7 9 0
5 9 10 11 0
7 9 0
